(set-info :source |printed by MathSAT|)
(declare-fun |.x{105}| () Int)
(declare-fun |.y{11}| () Int)
(declare-fun |.y{9}| () Int)
(declare-fun |.y{12}| () Int)
(declare-fun |.y{10}| () Int)
(declare-fun |.y{13}| () Int)
(declare-fun |.x{106}| () (Array Int Int))
(declare-fun |.y{14}| () (Array Int Int))
(declare-fun |.x{109}| () Int)
(declare-fun |.y{15}| () Int)
(declare-fun |.x{110}| () (Array Int Int))
(declare-fun |.y{16}| () (Array Int Int))
(declare-fun |.x{108}| () Int)
(declare-fun |.y{17}| () Int)
(declare-fun |.x{102}| () Int)
(declare-fun |.y{18}| () Int)
(declare-fun |.loc{3}| () Bool)
(declare-fun |.loc{5}| () Bool)
(declare-fun |.loc{4}| () Bool)
(declare-fun |.loc{6}| () Bool)
(declare-fun |.x{111}| () Int)
(declare-fun |.x{40}| () Int)
(declare-fun |.x{107}| () Int)
(define-fun .def_24 () Bool (! |.loc{3}| :next |.loc{5}|))
(define-fun .def_103 () Bool (not .def_24))
(define-fun .def_26 () Bool (! |.loc{4}| :next |.loc{6}|))
(define-fun .def_37 () Bool (not .def_26))
(define-fun .def_169 () Bool (! (and .def_37 .def_103) :init true))
(define-fun .def_14 () (Array Int Int) (! |.x{106}| :next |.y{14}|))
(define-fun .def_111 () Int (select .def_14 |.x{107}|))
(define-fun .def_18 () (Array Int Int) (! |.x{110}| :next |.y{16}|))
(define-fun .def_110 () Int (select .def_18 |.x{111}|))
(define-fun .def_112 () Bool (= .def_110 .def_111))
(define-fun .def_155 () Bool (not .def_112))
(define-fun .def_76 () Int (* (- 1) |.x{107}|))
(define-fun .def_20 () Int (! |.x{108}| :next |.y{17}|))
(define-fun .def_106 () Int (+ .def_20 .def_76))
(define-fun .def_8 () Int (! |.x{105}| :next |.y{11}|))
(define-fun .def_107 () Int (+ .def_8 .def_106))
(define-fun .def_108 () Bool (= .def_107 0))
(define-fun .def_16 () Int (! |.x{109}| :next |.y{15}|))
(define-fun .def_41 () Bool (<= .def_16 0))
(define-fun .def_44 () Bool (not .def_41))
(define-fun .def_39 () Bool (<= |.x{111}| 0))
(define-fun .def_40 () Bool (not .def_39))
(define-fun .def_42 () Bool (or .def_40 .def_41))
(define-fun .def_105 () Bool (and .def_42 .def_44))
(define-fun .def_109 () Bool (and .def_105 .def_108))
(define-fun .def_156 () Bool (and .def_109 .def_155))
(define-fun .def_157 () Bool (and |.loc{5}| .def_156))
(define-fun .def_31 () Int (* (- 1) |.x{111}|))
(define-fun .def_120 () Int (+ .def_20 .def_31))
(define-fun .def_121 () Int (+ .def_16 .def_120))
(define-fun .def_122 () Bool (= .def_121 0))
(define-fun .def_158 () Bool (and .def_122 .def_157))
(define-fun .def_22 () Int (! |.x{102}| :next |.y{18}|))
(define-fun .def_124 () Bool (<= .def_22 .def_20))
(define-fun .def_125 () Bool (not .def_124))
(define-fun .def_159 () Bool (and .def_125 .def_158))
(define-fun .def_132 () Bool (<= .def_8 0))
(define-fun .def_82 () Bool (<= |.x{107}| 0))
(define-fun .def_83 () Bool (not .def_82))
(define-fun .def_133 () Bool (or .def_83 .def_132))
(define-fun .def_160 () Bool (and .def_133 .def_159))
(define-fun .def_135 () Bool (not .def_132))
(define-fun .def_161 () Bool (and .def_135 .def_160))
(define-fun .def_162 () Bool (and .def_26 .def_161))
(define-fun .def_163 () Bool (and .def_103 .def_162))
(define-fun .def_151 () Bool (= .def_20 |.y{18}|))
(define-fun .def_10 () Int (! |.y{9}| :next |.y{12}|))
(define-fun .def_146 () Bool (= |.y{11}| .def_10))
(define-fun .def_143 () Bool (= |.y{17}| 0))
(define-fun .def_144 () Bool (and .def_37 .def_143))
(define-fun .def_12 () Int (! |.y{10}| :next |.y{13}|))
(define-fun .def_67 () Bool (<= .def_20 .def_12))
(define-fun .def_145 () Bool (and .def_67 .def_144))
(define-fun .def_147 () Bool (and .def_145 .def_146))
(define-fun .def_114 () Bool (= .def_14 |.y{14}|))
(define-fun .def_148 () Bool (and .def_114 .def_147))
(define-fun .def_49 () Bool (= .def_16 |.y{15}|))
(define-fun .def_149 () Bool (and .def_49 .def_148))
(define-fun .def_117 () Bool (= .def_18 |.y{16}|))
(define-fun .def_150 () Bool (and .def_117 .def_149))
(define-fun .def_152 () Bool (and .def_150 .def_151))
(define-fun .def_153 () Bool (and .def_24 .def_152))
(define-fun .def_141 () Bool (not |.loc{5}|))
(define-fun .def_154 () Bool (and .def_141 .def_153))
(define-fun .def_164 () Bool (or .def_154 .def_163))
(define-fun .def_137 () Bool (= .def_22 |.y{18}|))
(define-fun .def_127 () Int (* (- 1) |.y{17}|))
(define-fun .def_128 () Int (+ .def_20 .def_127))
(define-fun .def_129 () Bool (= .def_128 (- 1)))
(define-fun .def_113 () Bool (and .def_109 .def_112))
(define-fun .def_115 () Bool (and .def_113 .def_114))
(define-fun .def_116 () Bool (and .def_49 .def_115))
(define-fun .def_118 () Bool (and .def_116 .def_117))
(define-fun .def_123 () Bool (and .def_118 .def_122))
(define-fun .def_126 () Bool (and .def_123 .def_125))
(define-fun .def_130 () Bool (and .def_126 .def_129))
(define-fun .def_70 () Bool (= .def_8 |.y{11}|))
(define-fun .def_131 () Bool (and .def_70 .def_130))
(define-fun .def_134 () Bool (and .def_131 .def_133))
(define-fun .def_136 () Bool (and .def_134 .def_135))
(define-fun .def_138 () Bool (and .def_136 .def_137))
(define-fun .def_139 () Bool (and .def_26 .def_138))
(define-fun .def_140 () Bool (and .def_103 .def_139))
(define-fun .def_142 () Bool (and .def_140 .def_141))
(define-fun .def_165 () Bool (or .def_142 .def_164))
(define-fun .def_166 () Bool (and |.loc{6}| .def_165))
(define-fun .def_100 () Bool (<= |.y{15}| 0))
(define-fun .def_101 () Bool (not .def_100))
(define-fun .def_97 () Bool (<= |.y{17}| 0))
(define-fun .def_98 () Bool (not .def_97))
(define-fun .def_93 () Bool (<= |.y{12}| 0))
(define-fun .def_94 () Bool (not .def_93))
(define-fun .def_91 () Bool (= |.y{13}| 0))
(define-fun .def_89 () Bool (and |.loc{5}| .def_37))
(define-fun .def_61 () Bool (not |.loc{6}|))
(define-fun .def_90 () Bool (and .def_61 .def_89))
(define-fun .def_92 () Bool (and .def_90 .def_91))
(define-fun .def_95 () Bool (and .def_92 .def_94))
(define-fun .def_96 () Bool (and .def_70 .def_95))
(define-fun .def_99 () Bool (and .def_96 .def_98))
(define-fun .def_102 () Bool (and .def_99 .def_101))
(define-fun .def_104 () Bool (and .def_102 .def_103))
(define-fun .def_167 () Bool (or .def_104 .def_166))
(define-fun .def_81 () Bool (<= .def_10 0))
(define-fun .def_86 () Bool (not .def_81))
(define-fun .def_84 () Bool (or .def_81 .def_83))
(define-fun .def_77 () Int (+ .def_12 .def_76))
(define-fun .def_78 () Int (+ .def_10 .def_77))
(define-fun .def_79 () Bool (= .def_78 0))
(define-fun .def_68 () Bool (not .def_67))
(define-fun .def_64 () (Array Int Int) (store .def_14 |.x{107}| |.x{40}|))
(define-fun .def_65 () Bool (= |.y{14}| .def_64))
(define-fun .def_58 () (Array Int Int) (store .def_18 |.x{111}| |.x{40}|))
(define-fun .def_59 () Bool (= |.y{16}| .def_58))
(define-fun .def_55 () Bool (= .def_20 |.y{17}|))
(define-fun .def_51 () Int (* (- 1) |.y{13}|))
(define-fun .def_52 () Int (+ .def_12 .def_51))
(define-fun .def_53 () Bool (= .def_52 (- 1)))
(define-fun .def_46 () Bool (= .def_10 |.y{12}|))
(define-fun .def_34 () Int (+ .def_16 .def_31))
(define-fun .def_35 () Int (+ .def_12 .def_34))
(define-fun .def_36 () Bool (= .def_35 0))
(define-fun .def_38 () Bool (and .def_36 .def_37))
(define-fun .def_43 () Bool (and .def_38 .def_42))
(define-fun .def_45 () Bool (and .def_43 .def_44))
(define-fun .def_47 () Bool (and .def_45 .def_46))
(define-fun .def_48 () Bool (and |.loc{5}| .def_47))
(define-fun .def_50 () Bool (and .def_48 .def_49))
(define-fun .def_54 () Bool (and .def_50 .def_53))
(define-fun .def_56 () Bool (and .def_54 .def_55))
(define-fun .def_60 () Bool (and .def_56 .def_59))
(define-fun .def_62 () Bool (and .def_60 .def_61))
(define-fun .def_66 () Bool (and .def_62 .def_65))
(define-fun .def_69 () Bool (and .def_66 .def_68))
(define-fun .def_71 () Bool (and .def_69 .def_70))
(define-fun .def_80 () Bool (and .def_71 .def_79))
(define-fun .def_85 () Bool (and .def_80 .def_84))
(define-fun .def_87 () Bool (and .def_85 .def_86))
(define-fun .def_88 () Bool (and .def_24 .def_87))
(define-fun .def_168 () Bool (! (or .def_88 .def_167) :trans true))
(define-fun .def_170 () Bool (and .def_24 .def_26))
(define-fun .def_171 () Bool (! (not .def_170) :invar-property 0))
(assert true)
